(set-logic HORN)
(set-info :source |
    Benchmark: C_VC
    Output by Princess (http://www.philipp.ruemmer.org/princess.shtml)
|)
(set-info :status sat)
(declare-heap Heap Addr HeapObject
 defObj
 ((HeapObject 0)) (
  (
   (O_Int (getInt Int))
   (O_UInt (getUInt Int))
   (O_Addr (getAddr Addr))
   (defObj)
  )
))
(declare-fun inv_main11 (Heap AddrRange Int) Bool)
(declare-fun inv_main17 (Heap AddrRange Int) Bool)
(declare-fun inv_main2 (Heap AddrRange Int) Bool)
(declare-fun inv_main5 (Heap AddrRange Int) Bool)
(assert (inv_main2 (newBatchHeap (batchAlloc emptyHeap (O_Int 0) 10000000)) (newAddrRange (batchAlloc emptyHeap (O_Int 0) 10000000)) 0))
(assert (forall ((var0 AddrRange) (var1 Heap) (var2 Int) (var3 Int) (var4 AddrRange) (var5 Heap) (var6 Int)) (or (not (and (inv_main11 var5 var4 var3) (and (and (and (and (<= 0 (+ (+ 2 (* (- 1) (+ 10000000 (* (- 2) var6)))) (- 1))) (<= 0 (+ (+ 2 (* 1 (+ 10000000 (* (- 2) var6)))) (- 1)))) (not (<= 0 (+ (* (- 1) (+ 10000000 (* (- 2) var6))) (- 1))))) (<= 0 (+ (+ var6 (* (- 1) (+ var2 1))) (- 1)))) (and (and (is-O_Int (read var5 (nthAddrRange var4 var3))) (is-O_Int (read var5 (nthAddrRange var4 var3)))) (and (and (= var1 (write var5 (nthAddrRange var4 var3) (O_Int 10))) (= var0 var4)) (= var2 var3)))))) (inv_main11 var1 var0 (+ var2 1)))))
(assert (forall ((var0 AddrRange) (var1 Heap) (var2 Int) (var3 Int) (var4 AddrRange) (var5 Heap) (var6 Int)) (or (not (and (inv_main5 var5 var4 var3) (and (and (and (and (<= 0 (+ (+ 2 (* (- 1) (+ 10000000 (* (- 2) var6)))) (- 1))) (<= 0 (+ (+ 2 (* 1 (+ 10000000 (* (- 2) var6)))) (- 1)))) (not (<= 0 (+ (* (- 1) (+ 10000000 (* (- 2) var6))) (- 1))))) (<= 0 (+ var6 (- 1)))) (and (not (<= 0 (+ (+ 10000000 (* (- 1) (+ var2 1))) (- 1)))) (and (and (is-O_Int (read var5 (nthAddrRange var4 var3))) (is-O_Int (read var5 (nthAddrRange var4 var3)))) (and (and (= var1 (write var5 (nthAddrRange var4 var3) (O_Int 0))) (= var0 var4)) (= var2 var3))))))) (inv_main11 var1 var0 0))))
(assert (forall ((var0 Int) (var1 AddrRange) (var2 Heap)) (or (not (inv_main2 var2 var1 var0)) (inv_main5 var2 var1 0))))
(assert (forall ((var0 AddrRange) (var1 Heap) (var2 Int) (var3 Int) (var4 AddrRange) (var5 Heap)) (or (not (and (inv_main5 var5 var4 var3) (and (<= 0 (+ (+ 10000000 (* (- 1) (+ var2 1))) (- 1))) (and (and (is-O_Int (read var5 (nthAddrRange var4 var3))) (is-O_Int (read var5 (nthAddrRange var4 var3)))) (and (and (= var1 (write var5 (nthAddrRange var4 var3) (O_Int 0))) (= var0 var4)) (= var2 var3)))))) (inv_main5 var1 var0 (+ var2 1)))))
(assert (forall ((var0 Int) (var1 AddrRange) (var2 Heap) (var3 Int)) (or (not (and (inv_main17 var2 var1 var0) (and (and (and (and (<= 0 (+ (+ 2 (* (- 1) (+ 10000000 (* (- 2) var3)))) (- 1))) (<= 0 (+ (+ 2 (* 1 (+ 10000000 (* (- 2) var3)))) (- 1)))) (not (<= 0 (+ (* (- 1) (+ 10000000 (* (- 2) var3))) (- 1))))) (<= 0 (+ (+ var3 (* (- 1) (+ var0 1))) (- 1)))) (is-O_Int (read var2 (nthAddrRange var1 var0)))))) (inv_main17 var2 var1 (+ var0 1)))))
(assert (forall ((var0 AddrRange) (var1 Heap) (var2 Int) (var3 Int) (var4 AddrRange) (var5 Heap) (var6 Int) (var7 Int)) (or (not (and (inv_main11 var5 var4 var3) (and (and (and (and (<= 0 (+ (+ 2 (* (- 1) (+ 10000000 (* (- 2) var6)))) (- 1))) (<= 0 (+ (+ 2 (* 1 (+ 10000000 (* (- 2) var6)))) (- 1)))) (not (<= 0 (+ (* (- 1) (+ 10000000 (* (- 2) var6))) (- 1))))) (<= 0 (+ var6 (- 1)))) (and (not (or (not (and (and (<= 0 (+ (+ 2 (* (- 1) (+ 10000000 (* (- 2) var7)))) (- 1))) (<= 0 (+ (+ 2 (* 1 (+ 10000000 (* (- 2) var7)))) (- 1)))) (not (<= 0 (+ (* (- 1) (+ 10000000 (* (- 2) var7))) (- 1)))))) (<= 0 (+ (+ var7 (* (- 1) (+ var2 1))) (- 1))))) (and (and (is-O_Int (read var5 (nthAddrRange var4 var3))) (is-O_Int (read var5 (nthAddrRange var4 var3)))) (and (and (= var1 (write var5 (nthAddrRange var4 var3) (O_Int 10))) (= var0 var4)) (= var2 var3))))))) (inv_main17 var1 var0 0))))
(assert (forall ((var0 AddrRange) (var1 Heap) (var2 Int) (var3 Int) (var4 AddrRange) (var5 Heap) (var6 Int) (var7 Int)) (or (not (and (inv_main5 var5 var4 var3) (and (and (and (and (<= 0 (+ (+ 2 (* (- 1) (+ 10000000 (* (- 2) var6)))) (- 1))) (<= 0 (+ (+ 2 (* 1 (+ 10000000 (* (- 2) var6)))) (- 1)))) (not (<= 0 (+ (* (- 1) (+ 10000000 (* (- 2) var6))) (- 1))))) (<= 0 (+ var6 (- 1)))) (and (not (or (not (and (and (<= 0 (+ (+ 2 (* (- 1) (+ 10000000 (* (- 2) var7)))) (- 1))) (<= 0 (+ (+ 2 (* 1 (+ 10000000 (* (- 2) var7)))) (- 1)))) (not (<= 0 (+ (* (- 1) (+ 10000000 (* (- 2) var7))) (- 1)))))) (<= 0 (+ var7 (- 1))))) (and (not (<= 0 (+ (+ 10000000 (* (- 1) (+ var2 1))) (- 1)))) (and (and (is-O_Int (read var5 (nthAddrRange var4 var3))) (is-O_Int (read var5 (nthAddrRange var4 var3)))) (and (and (= var1 (write var5 (nthAddrRange var4 var3) (O_Int 0))) (= var0 var4)) (= var2 var3)))))))) (inv_main17 var1 var0 0))))
(assert (forall ((var0 Int) (var1 AddrRange) (var2 Heap)) (not (and (inv_main5 var2 var1 var0) (not (is-O_Int (read var2 (nthAddrRange var1 var0))))))))
(assert (forall ((var0 Int) (var1 AddrRange) (var2 Heap)) (not (and (inv_main5 var2 var1 var0) (and (is-O_Int (read var2 (nthAddrRange var1 var0))) (not (within var1 (nthAddrRange var1 var0))))))))
(assert (forall ((var0 Int) (var1 AddrRange) (var2 Heap)) (not (and (inv_main5 var2 var1 var0) (and (is-O_Int (read var2 (nthAddrRange var1 var0))) (not (is-O_Int (read var2 (nthAddrRange var1 var0)))))))))
(assert (forall ((var0 Int) (var1 AddrRange) (var2 Heap)) (not (and (inv_main11 var2 var1 var0) (not (is-O_Int (read var2 (nthAddrRange var1 var0))))))))
(assert (forall ((var0 Int) (var1 AddrRange) (var2 Heap)) (not (and (inv_main11 var2 var1 var0) (and (is-O_Int (read var2 (nthAddrRange var1 var0))) (not (within var1 (nthAddrRange var1 var0))))))))
(assert (forall ((var0 Int) (var1 AddrRange) (var2 Heap)) (not (and (inv_main11 var2 var1 var0) (and (is-O_Int (read var2 (nthAddrRange var1 var0))) (not (is-O_Int (read var2 (nthAddrRange var1 var0)))))))))
(assert (forall ((var0 Int) (var1 AddrRange) (var2 Heap)) (not (and (inv_main17 var2 var1 var0) (not (is-O_Int (read var2 (nthAddrRange var1 var0))))))))
(assert (forall ((var0 Int) (var1 AddrRange) (var2 Heap)) (not (and (inv_main17 var2 var1 var0) (not (within var1 (nthAddrRange var1 var0)))))))
(assert (forall ((var0 Int) (var1 AddrRange) (var2 Heap)) (not (and (inv_main17 var2 var1 var0) (not (is-O_Int (read var2 (nthAddrRange var1 var0))))))))
(assert (forall ((var0 Int) (var1 AddrRange) (var2 Heap)) (not (and (inv_main17 var2 var1 var0) (and (is-O_Int (read var2 (nthAddrRange var1 var0))) (not (within var1 (nthAddrRange var1 var0))))))))
(assert (forall ((var0 Int) (var1 AddrRange) (var2 Heap)) (not (and (inv_main17 var2 var1 var0) (and (is-O_Int (read var2 (nthAddrRange var1 var0))) (not (= (getInt (read var2 (nthAddrRange var1 var0))) 10)))))))
(check-sat)
